;; Mutation-Based Equivalence Benchmark
;; Source:     AutomatArk / instance14928.smt2
;; Mutations:  intersect_no_slash_slash, range_shrink_lo
;; Status:     sat
;;
;; Original regex vs mutated regex
;; Equivalence check: unsat ⟺ L(R1) = L(R2)

(set-info :smt-lib-version 2.6)
(set-info :category "mutation")
(set-info :status sat)
(set-logic QF_S)


;; R1: original
;; R2: mutated (intersect_no_slash_slash, range_shrink_lo)
(assert
  (not
    (=
      (re.++ ((_ re.loop 1 1) (re.union (re.range "a" "z") (re.range "A" "Z"))) (re.* (re.union (re.range "a" "z") (re.range "A" "Z") (re.range "0" "9") (str.to_re "_") (re.range "0" "9") (re.range "A" "Z") (re.range "a" "z") (str.to_re "_") (str.to_re " ") (str.to_re "\u{9}") (str.to_re "\u{a}") (str.to_re "\u{c}") (str.to_re "\u{d}"))) (re.union (str.to_re " ") (str.to_re "\u{9}") (str.to_re "\u{a}") (str.to_re "\u{c}") (str.to_re "\u{d}")) (str.to_re "\u{a}"))
      (re.++ ((_ re.loop 1 1) (re.union (re.range "a" "z") (re.range "A" "Z"))) (re.* (re.union (re.range "a" "z") (re.range "A" "Z") (re.range "0" "9") (str.to_re "_") (re.range "0" "9") (re.range "A" "Z") (re.range "b" "z") (str.to_re "_") (str.to_re " ") (str.to_re "\u{9}") (str.to_re "\u{a}") (str.to_re "\u{c}") (str.to_re "\u{d}"))) (re.inter (re.union (str.to_re " ") (str.to_re "\u{9}") (str.to_re "\u{a}") (str.to_re "\u{c}") (str.to_re "\u{d}")) (re.comp (re.++ re.all (str.to_re "//") re.all))) (str.to_re "\u{a}")))))

(check-sat)
(exit)
